(set-info :category "industrial")
(set-info :status sat)
(declare-fun x00 () (_ BitVec 8))
(declare-fun x01 () (_ BitVec 8))
(declare-fun x02 () (_ BitVec 8))
(declare-fun x03 () (_ BitVec 8))
(declare-fun x04 () (_ BitVec 8))
(declare-fun x05 () (_ BitVec 8))
(declare-fun x06 () (_ BitVec 8))
(declare-fun x07 () (_ BitVec 8))
(declare-fun x10 () (_ BitVec 8))
(declare-fun x11 () (_ BitVec 8))
(declare-fun x13 () (_ BitVec 8))
(declare-fun x14 () (_ BitVec 8))
(declare-fun x16 () (_ BitVec 8))
(declare-fun x18 () (_ BitVec 8))
(declare-fun x20 () (_ BitVec 8))
(declare-fun x22 () (_ BitVec 8))
(declare-fun x24 () (_ BitVec 8))
(declare-fun x25 () (_ BitVec 8))
(declare-fun x27 () (_ BitVec 8))
(declare-fun x30 () (_ BitVec 8))
(declare-fun x32 () (_ BitVec 8))
(declare-fun x33 () (_ BitVec 8))
(declare-fun x36 () (_ BitVec 8))
(declare-fun x37 () (_ BitVec 8))
(declare-fun x38 () (_ BitVec 8))
(declare-fun x40 () (_ BitVec 8))
(declare-fun x41 () (_ BitVec 8))
(declare-fun x42 () (_ BitVec 8))
(declare-fun x43 () (_ BitVec 8))
(declare-fun x45 () (_ BitVec 8))
(declare-fun x46 () (_ BitVec 8))
(declare-fun x47 () (_ BitVec 8))
(declare-fun x48 () (_ BitVec 8))
(declare-fun x51 () (_ BitVec 8))
(declare-fun x52 () (_ BitVec 8))
(declare-fun x54 () (_ BitVec 8))
(declare-fun x55 () (_ BitVec 8))
(declare-fun x56 () (_ BitVec 8))
(declare-fun x58 () (_ BitVec 8))
(declare-fun x60 () (_ BitVec 8))
(declare-fun x61 () (_ BitVec 8))
(declare-fun x63 () (_ BitVec 8))
(declare-fun x64 () (_ BitVec 8))
(declare-fun x65 () (_ BitVec 8))
(declare-fun x66 () (_ BitVec 8))
(declare-fun x70 () (_ BitVec 8))
(declare-fun x72 () (_ BitVec 8))
(declare-fun x74 () (_ BitVec 8))
(declare-fun x75 () (_ BitVec 8))
(declare-fun x77 () (_ BitVec 8))
(declare-fun x78 () (_ BitVec 8))
(declare-fun x81 () (_ BitVec 8))
(declare-fun x82 () (_ BitVec 8))
(declare-fun x83 () (_ BitVec 8))
(declare-fun x84 () (_ BitVec 8))
(declare-fun x85 () (_ BitVec 8))
(declare-fun x86 () (_ BitVec 8))
(declare-fun x87 () (_ BitVec 8))
(declare-fun x88 () (_ BitVec 8))
(assert (bvult x00 (_ bv9 8)))
(assert (bvult x01 (_ bv9 8)))
(assert (bvult x02 (_ bv9 8)))
(assert (bvult x03 (_ bv9 8)))
(assert (bvult x04 (_ bv9 8)))
(assert (bvult x05 (_ bv9 8)))
(assert (bvult x06 (_ bv9 8)))
(assert (bvult x07 (_ bv9 8)))
(assert (bvult x10 (_ bv9 8)))
(assert (bvult x11 (_ bv9 8)))
(assert (bvult x13 (_ bv9 8)))
(assert (bvult x14 (_ bv9 8)))
(assert (bvult x16 (_ bv9 8)))
(assert (bvult x18 (_ bv9 8)))
(assert (bvult x20 (_ bv9 8)))
(assert (bvult x22 (_ bv9 8)))
(assert (bvult x24 (_ bv9 8)))
(assert (bvult x25 (_ bv9 8)))
(assert (bvult x27 (_ bv9 8)))
(assert (bvult x30 (_ bv9 8)))
(assert (bvult x32 (_ bv9 8)))
(assert (bvult x33 (_ bv9 8)))
(assert (bvult x36 (_ bv9 8)))
(assert (bvult x37 (_ bv9 8)))
(assert (bvult x38 (_ bv9 8)))
(assert (bvult x40 (_ bv9 8)))
(assert (bvult x41 (_ bv9 8)))
(assert (bvult x42 (_ bv9 8)))
(assert (bvult x43 (_ bv9 8)))
(assert (bvult x45 (_ bv9 8)))
(assert (bvult x46 (_ bv9 8)))
(assert (bvult x47 (_ bv9 8)))
(assert (bvult x48 (_ bv9 8)))
(assert (bvult x51 (_ bv9 8)))
(assert (bvult x52 (_ bv9 8)))
(assert (bvult x54 (_ bv9 8)))
(assert (bvult x55 (_ bv9 8)))
(assert (bvult x56 (_ bv9 8)))
(assert (bvult x58 (_ bv9 8)))
(assert (bvult x60 (_ bv9 8)))
(assert (bvult x61 (_ bv9 8)))
(assert (bvult x63 (_ bv9 8)))
(assert (bvult x64 (_ bv9 8)))
(assert (bvult x65 (_ bv9 8)))
(assert (bvult x66 (_ bv9 8)))
(assert (bvult x70 (_ bv9 8)))
(assert (bvult x72 (_ bv9 8)))
(assert (bvult x74 (_ bv9 8)))
(assert (bvult x75 (_ bv9 8)))
(assert (bvult x77 (_ bv9 8)))
(assert (bvult x78 (_ bv9 8)))
(assert (bvult x81 (_ bv9 8)))
(assert (bvult x82 (_ bv9 8)))
(assert (bvult x83 (_ bv9 8)))
(assert (bvult x84 (_ bv9 8)))
(assert (bvult x85 (_ bv9 8)))
(assert (bvult x86 (_ bv9 8)))
(assert (bvult x87 (_ bv9 8)))
(assert (bvult x88 (_ bv9 8)))
(assert (not (= x00 x01)))
(assert (not (= x00 x02)))
(assert (not (= x00 x03)))
(assert (not (= x00 x04)))
(assert (not (= x00 x05)))
(assert (not (= x00 x06)))
(assert (not (= x00 x07)))
(assert (not (= x00 (_ bv7 8))))
(assert (not (= x01 x02)))
(assert (not (= x01 x03)))
(assert (not (= x01 x04)))
(assert (not (= x01 x05)))
(assert (not (= x01 x06)))
(assert (not (= x01 x07)))
(assert (not (= x01 (_ bv7 8))))
(assert (not (= x02 x03)))
(assert (not (= x02 x04)))
(assert (not (= x02 x05)))
(assert (not (= x02 x06)))
(assert (not (= x02 x07)))
(assert (not (= x02 (_ bv7 8))))
(assert (not (= x03 x04)))
(assert (not (= x03 x05)))
(assert (not (= x03 x06)))
(assert (not (= x03 x07)))
(assert (not (= x03 (_ bv7 8))))
(assert (not (= x04 x05)))
(assert (not (= x04 x06)))
(assert (not (= x04 x07)))
(assert (not (= x04 (_ bv7 8))))
(assert (not (= x05 x06)))
(assert (not (= x05 x07)))
(assert (not (= x05 (_ bv7 8))))
(assert (not (= x06 x07)))
(assert (not (= x06 (_ bv7 8))))
(assert (not (= x07 (_ bv7 8))))
(assert (not (= x10 x11)))
(assert (not (= x10 (_ bv1 8))))
(assert (not (= x10 x13)))
(assert (not (= x10 x14)))
(assert (not (= x10 (_ bv9 8))))
(assert (not (= x10 x16)))
(assert (not (= x10 (_ bv8 8))))
(assert (not (= x10 x18)))
(assert (not (= x11 (_ bv1 8))))
(assert (not (= x11 x13)))
(assert (not (= x11 x14)))
(assert (not (= x11 (_ bv9 8))))
(assert (not (= x11 x16)))
(assert (not (= x11 (_ bv8 8))))
(assert (not (= x11 x18)))
(assert (not (= (_ bv1 8) x13)))
(assert (not (= (_ bv1 8) x14)))
(assert (not (= (_ bv1 8) (_ bv9 8))))
(assert (not (= (_ bv1 8) x16)))
(assert (not (= (_ bv1 8) (_ bv8 8))))
(assert (not (= (_ bv1 8) x18)))
(assert (not (= x13 x14)))
(assert (not (= x13 (_ bv9 8))))
(assert (not (= x13 x16)))
(assert (not (= x13 (_ bv8 8))))
(assert (not (= x13 x18)))
(assert (not (= x14 (_ bv9 8))))
(assert (not (= x14 x16)))
(assert (not (= x14 (_ bv8 8))))
(assert (not (= x14 x18)))
(assert (not (= (_ bv9 8) x16)))
(assert (not (= (_ bv9 8) (_ bv8 8))))
(assert (not (= (_ bv9 8) x18)))
(assert (not (= x16 (_ bv8 8))))
(assert (not (= x16 x18)))
(assert (not (= (_ bv8 8) x18)))
(assert (not (= x20 (_ bv3 8))))
(assert (not (= x20 x22)))
(assert (not (= x20 (_ bv6 8))))
(assert (not (= x20 x24)))
(assert (not (= x20 x25)))
(assert (not (= x20 (_ bv5 8))))
(assert (not (= x20 x27)))
(assert (not (= x20 (_ bv9 8))))
(assert (not (= (_ bv3 8) x22)))
(assert (not (= (_ bv3 8) (_ bv6 8))))
(assert (not (= (_ bv3 8) x24)))
(assert (not (= (_ bv3 8) x25)))
(assert (not (= (_ bv3 8) (_ bv5 8))))
(assert (not (= (_ bv3 8) x27)))
(assert (not (= (_ bv3 8) (_ bv9 8))))
(assert (not (= x22 (_ bv6 8))))
(assert (not (= x22 x24)))
(assert (not (= x22 x25)))
(assert (not (= x22 (_ bv5 8))))
(assert (not (= x22 x27)))
(assert (not (= x22 (_ bv9 8))))
(assert (not (= (_ bv6 8) x24)))
(assert (not (= (_ bv6 8) x25)))
(assert (not (= (_ bv6 8) (_ bv5 8))))
(assert (not (= (_ bv6 8) x27)))
(assert (not (= (_ bv6 8) (_ bv9 8))))
(assert (not (= x24 x25)))
(assert (not (= x24 (_ bv5 8))))
(assert (not (= x24 x27)))
(assert (not (= x24 (_ bv9 8))))
(assert (not (= x25 (_ bv5 8))))
(assert (not (= x25 x27)))
(assert (not (= x25 (_ bv9 8))))
(assert (not (= (_ bv5 8) x27)))
(assert (not (= (_ bv5 8) (_ bv9 8))))
(assert (not (= x27 (_ bv9 8))))
(assert (not (= x30 (_ bv9 8))))
(assert (not (= x30 x32)))
(assert (not (= x30 x33)))
(assert (not (= x30 (_ bv2 8))))
(assert (not (= x30 (_ bv5 8))))
(assert (not (= x30 x36)))
(assert (not (= x30 x37)))
(assert (not (= x30 x38)))
(assert (not (= (_ bv9 8) x32)))
(assert (not (= (_ bv9 8) x33)))
(assert (not (= (_ bv9 8) (_ bv2 8))))
(assert (not (= (_ bv9 8) (_ bv5 8))))
(assert (not (= (_ bv9 8) x36)))
(assert (not (= (_ bv9 8) x37)))
(assert (not (= (_ bv9 8) x38)))
(assert (not (= x32 x33)))
(assert (not (= x32 (_ bv2 8))))
(assert (not (= x32 (_ bv5 8))))
(assert (not (= x32 x36)))
(assert (not (= x32 x37)))
(assert (not (= x32 x38)))
(assert (not (= x33 (_ bv2 8))))
(assert (not (= x33 (_ bv5 8))))
(assert (not (= x33 x36)))
(assert (not (= x33 x37)))
(assert (not (= x33 x38)))
(assert (not (= (_ bv2 8) (_ bv5 8))))
(assert (not (= (_ bv2 8) x36)))
(assert (not (= (_ bv2 8) x37)))
(assert (not (= (_ bv2 8) x38)))
(assert (not (= (_ bv5 8) x36)))
(assert (not (= (_ bv5 8) x37)))
(assert (not (= (_ bv5 8) x38)))
(assert (not (= x36 x37)))
(assert (not (= x36 x38)))
(assert (not (= x37 x38)))
(assert (not (= x40 x41)))
(assert (not (= x40 x42)))
(assert (not (= x40 x43)))
(assert (not (= x40 (_ bv6 8))))
(assert (not (= x40 x45)))
(assert (not (= x40 x46)))
(assert (not (= x40 x47)))
(assert (not (= x40 x48)))
(assert (not (= x41 x42)))
(assert (not (= x41 x43)))
(assert (not (= x41 (_ bv6 8))))
(assert (not (= x41 x45)))
(assert (not (= x41 x46)))
(assert (not (= x41 x47)))
(assert (not (= x41 x48)))
(assert (not (= x42 x43)))
(assert (not (= x42 (_ bv6 8))))
(assert (not (= x42 x45)))
(assert (not (= x42 x46)))
(assert (not (= x42 x47)))
(assert (not (= x42 x48)))
(assert (not (= x43 (_ bv6 8))))
(assert (not (= x43 x45)))
(assert (not (= x43 x46)))
(assert (not (= x43 x47)))
(assert (not (= x43 x48)))
(assert (not (= (_ bv6 8) x45)))
(assert (not (= (_ bv6 8) x46)))
(assert (not (= (_ bv6 8) x47)))
(assert (not (= (_ bv6 8) x48)))
(assert (not (= x45 x46)))
(assert (not (= x45 x47)))
(assert (not (= x45 x48)))
(assert (not (= x46 x47)))
(assert (not (= x46 x48)))
(assert (not (= x47 x48)))
(assert (not (= (_ bv3 8) x51)))
(assert (not (= (_ bv3 8) x52)))
(assert (not (= (_ bv3 8) (_ bv9 8))))
(assert (not (= (_ bv3 8) x54)))
(assert (not (= (_ bv3 8) x55)))
(assert (not (= (_ bv3 8) x56)))
(assert (not (= (_ bv3 8) (_ bv4 8))))
(assert (not (= (_ bv3 8) x58)))
(assert (not (= x51 x52)))
(assert (not (= x51 (_ bv9 8))))
(assert (not (= x51 x54)))
(assert (not (= x51 x55)))
(assert (not (= x51 x56)))
(assert (not (= x51 (_ bv4 8))))
(assert (not (= x51 x58)))
(assert (not (= x52 (_ bv9 8))))
(assert (not (= x52 x54)))
(assert (not (= x52 x55)))
(assert (not (= x52 x56)))
(assert (not (= x52 (_ bv4 8))))
(assert (not (= x52 x58)))
(assert (not (= (_ bv9 8) x54)))
(assert (not (= (_ bv9 8) x55)))
(assert (not (= (_ bv9 8) x56)))
(assert (not (= (_ bv9 8) (_ bv4 8))))
(assert (not (= (_ bv9 8) x58)))
(assert (not (= x54 x55)))
(assert (not (= x54 x56)))
(assert (not (= x54 (_ bv4 8))))
(assert (not (= x54 x58)))
(assert (not (= x55 x56)))
(assert (not (= x55 (_ bv4 8))))
(assert (not (= x55 x58)))
(assert (not (= x56 (_ bv4 8))))
(assert (not (= x56 x58)))
(assert (not (= (_ bv4 8) x58)))
(assert (not (= x60 x61)))
(assert (not (= x60 (_ bv7 8))))
(assert (not (= x60 x63)))
(assert (not (= x60 x64)))
(assert (not (= x60 x65)))
(assert (not (= x60 x66)))
(assert (not (= x60 (_ bv9 8))))
(assert (not (= x60 (_ bv1 8))))
(assert (not (= x61 (_ bv7 8))))
(assert (not (= x61 x63)))
(assert (not (= x61 x64)))
(assert (not (= x61 x65)))
(assert (not (= x61 x66)))
(assert (not (= x61 (_ bv9 8))))
(assert (not (= x61 (_ bv1 8))))
(assert (not (= (_ bv7 8) x63)))
(assert (not (= (_ bv7 8) x64)))
(assert (not (= (_ bv7 8) x65)))
(assert (not (= (_ bv7 8) x66)))
(assert (not (= (_ bv7 8) (_ bv9 8))))
(assert (not (= (_ bv7 8) (_ bv1 8))))
(assert (not (= x63 x64)))
(assert (not (= x63 x65)))
(assert (not (= x63 x66)))
(assert (not (= x63 (_ bv9 8))))
(assert (not (= x63 (_ bv1 8))))
(assert (not (= x64 x65)))
(assert (not (= x64 x66)))
(assert (not (= x64 (_ bv9 8))))
(assert (not (= x64 (_ bv1 8))))
(assert (not (= x65 x66)))
(assert (not (= x65 (_ bv9 8))))
(assert (not (= x65 (_ bv1 8))))
(assert (not (= x66 (_ bv9 8))))
(assert (not (= x66 (_ bv1 8))))
(assert (not (= (_ bv9 8) (_ bv1 8))))
(assert (not (= x70 (_ bv2 8))))
(assert (not (= x70 x72)))
(assert (not (= x70 (_ bv5 8))))
(assert (not (= x70 x74)))
(assert (not (= x70 x75)))
(assert (not (= x70 (_ bv3 8))))
(assert (not (= x70 x77)))
(assert (not (= x70 x78)))
(assert (not (= (_ bv2 8) x72)))
(assert (not (= (_ bv2 8) (_ bv5 8))))
(assert (not (= (_ bv2 8) x74)))
(assert (not (= (_ bv2 8) x75)))
(assert (not (= (_ bv2 8) (_ bv3 8))))
(assert (not (= (_ bv2 8) x77)))
(assert (not (= (_ bv2 8) x78)))
(assert (not (= x72 (_ bv5 8))))
(assert (not (= x72 x74)))
(assert (not (= x72 x75)))
(assert (not (= x72 (_ bv3 8))))
(assert (not (= x72 x77)))
(assert (not (= x72 x78)))
(assert (not (= (_ bv5 8) x74)))
(assert (not (= (_ bv5 8) x75)))
(assert (not (= (_ bv5 8) (_ bv3 8))))
(assert (not (= (_ bv5 8) x77)))
(assert (not (= (_ bv5 8) x78)))
(assert (not (= x74 x75)))
(assert (not (= x74 (_ bv3 8))))
(assert (not (= x74 x77)))
(assert (not (= x74 x78)))
(assert (not (= x75 (_ bv3 8))))
(assert (not (= x75 x77)))
(assert (not (= x75 x78)))
(assert (not (= (_ bv3 8) x77)))
(assert (not (= (_ bv3 8) x78)))
(assert (not (= x77 x78)))
(assert (not (= (_ bv8 8) x81)))
(assert (not (= (_ bv8 8) x82)))
(assert (not (= (_ bv8 8) x83)))
(assert (not (= (_ bv8 8) x84)))
(assert (not (= (_ bv8 8) x85)))
(assert (not (= (_ bv8 8) x86)))
(assert (not (= (_ bv8 8) x87)))
(assert (not (= (_ bv8 8) x88)))
(assert (not (= x81 x82)))
(assert (not (= x81 x83)))
(assert (not (= x81 x84)))
(assert (not (= x81 x85)))
(assert (not (= x81 x86)))
(assert (not (= x81 x87)))
(assert (not (= x81 x88)))
(assert (not (= x82 x83)))
(assert (not (= x82 x84)))
(assert (not (= x82 x85)))
(assert (not (= x82 x86)))
(assert (not (= x82 x87)))
(assert (not (= x82 x88)))
(assert (not (= x83 x84)))
(assert (not (= x83 x85)))
(assert (not (= x83 x86)))
(assert (not (= x83 x87)))
(assert (not (= x83 x88)))
(assert (not (= x84 x85)))
(assert (not (= x84 x86)))
(assert (not (= x84 x87)))
(assert (not (= x84 x88)))
(assert (not (= x85 x86)))
(assert (not (= x85 x87)))
(assert (not (= x85 x88)))
(assert (not (= x86 x87)))
(assert (not (= x86 x88)))
(assert (not (= x87 x88)))
(assert (not (= x00 x10)))
(assert (not (= x00 x20)))
(assert (not (= x00 x30)))
(assert (not (= x00 x40)))
(assert (not (= x00 (_ bv3 8))))
(assert (not (= x00 x60)))
(assert (not (= x00 x70)))
(assert (not (= x00 (_ bv8 8))))
(assert (not (= x10 x20)))
(assert (not (= x10 x30)))
(assert (not (= x10 x40)))
(assert (not (= x10 (_ bv3 8))))
(assert (not (= x10 x60)))
(assert (not (= x10 x70)))
(assert (not (= x10 (_ bv8 8))))
(assert (not (= x20 x30)))
(assert (not (= x20 x40)))
(assert (not (= x20 (_ bv3 8))))
(assert (not (= x20 x60)))
(assert (not (= x20 x70)))
(assert (not (= x20 (_ bv8 8))))
(assert (not (= x30 x40)))
(assert (not (= x30 (_ bv3 8))))
(assert (not (= x30 x60)))
(assert (not (= x30 x70)))
(assert (not (= x30 (_ bv8 8))))
(assert (not (= x40 (_ bv3 8))))
(assert (not (= x40 x60)))
(assert (not (= x40 x70)))
(assert (not (= x40 (_ bv8 8))))
(assert (not (= (_ bv3 8) x60)))
(assert (not (= (_ bv3 8) x70)))
(assert (not (= (_ bv3 8) (_ bv8 8))))
(assert (not (= x60 x70)))
(assert (not (= x60 (_ bv8 8))))
(assert (not (= x70 (_ bv8 8))))
(assert (not (= x01 x11)))
(assert (not (= x01 (_ bv3 8))))
(assert (not (= x01 (_ bv9 8))))
(assert (not (= x01 x41)))
(assert (not (= x01 x51)))
(assert (not (= x01 x61)))
(assert (not (= x01 (_ bv2 8))))
(assert (not (= x01 x81)))
(assert (not (= x11 (_ bv3 8))))
(assert (not (= x11 (_ bv9 8))))
(assert (not (= x11 x41)))
(assert (not (= x11 x51)))
(assert (not (= x11 x61)))
(assert (not (= x11 (_ bv2 8))))
(assert (not (= x11 x81)))
(assert (not (= (_ bv3 8) (_ bv9 8))))
(assert (not (= (_ bv3 8) x41)))
(assert (not (= (_ bv3 8) x51)))
(assert (not (= (_ bv3 8) x61)))
(assert (not (= (_ bv3 8) (_ bv2 8))))
(assert (not (= (_ bv3 8) x81)))
(assert (not (= (_ bv9 8) x41)))
(assert (not (= (_ bv9 8) x51)))
(assert (not (= (_ bv9 8) x61)))
(assert (not (= (_ bv9 8) (_ bv2 8))))
(assert (not (= (_ bv9 8) x81)))
(assert (not (= x41 x51)))
(assert (not (= x41 x61)))
(assert (not (= x41 (_ bv2 8))))
(assert (not (= x41 x81)))
(assert (not (= x51 x61)))
(assert (not (= x51 (_ bv2 8))))
(assert (not (= x51 x81)))
(assert (not (= x61 (_ bv2 8))))
(assert (not (= x61 x81)))
(assert (not (= (_ bv2 8) x81)))
(assert (not (= x02 (_ bv1 8))))
(assert (not (= x02 x22)))
(assert (not (= x02 x32)))
(assert (not (= x02 x42)))
(assert (not (= x02 x52)))
(assert (not (= x02 (_ bv7 8))))
(assert (not (= x02 x72)))
(assert (not (= x02 x82)))
(assert (not (= (_ bv1 8) x22)))
(assert (not (= (_ bv1 8) x32)))
(assert (not (= (_ bv1 8) x42)))
(assert (not (= (_ bv1 8) x52)))
(assert (not (= (_ bv1 8) (_ bv7 8))))
(assert (not (= (_ bv1 8) x72)))
(assert (not (= (_ bv1 8) x82)))
(assert (not (= x22 x32)))
(assert (not (= x22 x42)))
(assert (not (= x22 x52)))
(assert (not (= x22 (_ bv7 8))))
(assert (not (= x22 x72)))
(assert (not (= x22 x82)))
(assert (not (= x32 x42)))
(assert (not (= x32 x52)))
(assert (not (= x32 (_ bv7 8))))
(assert (not (= x32 x72)))
(assert (not (= x32 x82)))
(assert (not (= x42 x52)))
(assert (not (= x42 (_ bv7 8))))
(assert (not (= x42 x72)))
(assert (not (= x42 x82)))
(assert (not (= x52 (_ bv7 8))))
(assert (not (= x52 x72)))
(assert (not (= x52 x82)))
(assert (not (= (_ bv7 8) x72)))
(assert (not (= (_ bv7 8) x82)))
(assert (not (= x72 x82)))
(assert (not (= x03 x13)))
(assert (not (= x03 (_ bv6 8))))
(assert (not (= x03 x33)))
(assert (not (= x03 x43)))
(assert (not (= x03 (_ bv9 8))))
(assert (not (= x03 x63)))
(assert (not (= x03 (_ bv5 8))))
(assert (not (= x03 x83)))
(assert (not (= x13 (_ bv6 8))))
(assert (not (= x13 x33)))
(assert (not (= x13 x43)))
(assert (not (= x13 (_ bv9 8))))
(assert (not (= x13 x63)))
(assert (not (= x13 (_ bv5 8))))
(assert (not (= x13 x83)))
(assert (not (= (_ bv6 8) x33)))
(assert (not (= (_ bv6 8) x43)))
(assert (not (= (_ bv6 8) (_ bv9 8))))
(assert (not (= (_ bv6 8) x63)))
(assert (not (= (_ bv6 8) (_ bv5 8))))
(assert (not (= (_ bv6 8) x83)))
(assert (not (= x33 x43)))
(assert (not (= x33 (_ bv9 8))))
(assert (not (= x33 x63)))
(assert (not (= x33 (_ bv5 8))))
(assert (not (= x33 x83)))
(assert (not (= x43 (_ bv9 8))))
(assert (not (= x43 x63)))
(assert (not (= x43 (_ bv5 8))))
(assert (not (= x43 x83)))
(assert (not (= (_ bv9 8) x63)))
(assert (not (= (_ bv9 8) (_ bv5 8))))
(assert (not (= (_ bv9 8) x83)))
(assert (not (= x63 (_ bv5 8))))
(assert (not (= x63 x83)))
(assert (not (= (_ bv5 8) x83)))
(assert (not (= x04 x14)))
(assert (not (= x04 x24)))
(assert (not (= x04 (_ bv2 8))))
(assert (not (= x04 (_ bv6 8))))
(assert (not (= x04 x54)))
(assert (not (= x04 x64)))
(assert (not (= x04 x74)))
(assert (not (= x04 x84)))
(assert (not (= x14 x24)))
(assert (not (= x14 (_ bv2 8))))
(assert (not (= x14 (_ bv6 8))))
(assert (not (= x14 x54)))
(assert (not (= x14 x64)))
(assert (not (= x14 x74)))
(assert (not (= x14 x84)))
(assert (not (= x24 (_ bv2 8))))
(assert (not (= x24 (_ bv6 8))))
(assert (not (= x24 x54)))
(assert (not (= x24 x64)))
(assert (not (= x24 x74)))
(assert (not (= x24 x84)))
(assert (not (= (_ bv2 8) (_ bv6 8))))
(assert (not (= (_ bv2 8) x54)))
(assert (not (= (_ bv2 8) x64)))
(assert (not (= (_ bv2 8) x74)))
(assert (not (= (_ bv2 8) x84)))
(assert (not (= (_ bv6 8) x54)))
(assert (not (= (_ bv6 8) x64)))
(assert (not (= (_ bv6 8) x74)))
(assert (not (= (_ bv6 8) x84)))
(assert (not (= x54 x64)))
(assert (not (= x54 x74)))
(assert (not (= x54 x84)))
(assert (not (= x64 x74)))
(assert (not (= x64 x84)))
(assert (not (= x74 x84)))
(assert (not (= x05 (_ bv9 8))))
(assert (not (= x05 x25)))
(assert (not (= x05 (_ bv5 8))))
(assert (not (= x05 x45)))
(assert (not (= x05 x55)))
(assert (not (= x05 x65)))
(assert (not (= x05 x75)))
(assert (not (= x05 x85)))
(assert (not (= (_ bv9 8) x25)))
(assert (not (= (_ bv9 8) (_ bv5 8))))
(assert (not (= (_ bv9 8) x45)))
(assert (not (= (_ bv9 8) x55)))
(assert (not (= (_ bv9 8) x65)))
(assert (not (= (_ bv9 8) x75)))
(assert (not (= (_ bv9 8) x85)))
(assert (not (= x25 (_ bv5 8))))
(assert (not (= x25 x45)))
(assert (not (= x25 x55)))
(assert (not (= x25 x65)))
(assert (not (= x25 x75)))
(assert (not (= x25 x85)))
(assert (not (= (_ bv5 8) x45)))
(assert (not (= (_ bv5 8) x55)))
(assert (not (= (_ bv5 8) x65)))
(assert (not (= (_ bv5 8) x75)))
(assert (not (= (_ bv5 8) x85)))
(assert (not (= x45 x55)))
(assert (not (= x45 x65)))
(assert (not (= x45 x75)))
(assert (not (= x45 x85)))
(assert (not (= x55 x65)))
(assert (not (= x55 x75)))
(assert (not (= x55 x85)))
(assert (not (= x65 x75)))
(assert (not (= x65 x85)))
(assert (not (= x75 x85)))
(assert (not (= x06 x16)))
(assert (not (= x06 (_ bv5 8))))
(assert (not (= x06 x36)))
(assert (not (= x06 x46)))
(assert (not (= x06 x56)))
(assert (not (= x06 x66)))
(assert (not (= x06 (_ bv3 8))))
(assert (not (= x06 x86)))
(assert (not (= x16 (_ bv5 8))))
(assert (not (= x16 x36)))
(assert (not (= x16 x46)))
(assert (not (= x16 x56)))
(assert (not (= x16 x66)))
(assert (not (= x16 (_ bv3 8))))
(assert (not (= x16 x86)))
(assert (not (= (_ bv5 8) x36)))
(assert (not (= (_ bv5 8) x46)))
(assert (not (= (_ bv5 8) x56)))
(assert (not (= (_ bv5 8) x66)))
(assert (not (= (_ bv5 8) (_ bv3 8))))
(assert (not (= (_ bv5 8) x86)))
(assert (not (= x36 x46)))
(assert (not (= x36 x56)))
(assert (not (= x36 x66)))
(assert (not (= x36 (_ bv3 8))))
(assert (not (= x36 x86)))
(assert (not (= x46 x56)))
(assert (not (= x46 x66)))
(assert (not (= x46 (_ bv3 8))))
(assert (not (= x46 x86)))
(assert (not (= x56 x66)))
(assert (not (= x56 (_ bv3 8))))
(assert (not (= x56 x86)))
(assert (not (= x66 (_ bv3 8))))
(assert (not (= x66 x86)))
(assert (not (= (_ bv3 8) x86)))
(assert (not (= x07 (_ bv8 8))))
(assert (not (= x07 x27)))
(assert (not (= x07 x37)))
(assert (not (= x07 x47)))
(assert (not (= x07 (_ bv4 8))))
(assert (not (= x07 (_ bv9 8))))
(assert (not (= x07 x77)))
(assert (not (= x07 x87)))
(assert (not (= (_ bv8 8) x27)))
(assert (not (= (_ bv8 8) x37)))
(assert (not (= (_ bv8 8) x47)))
(assert (not (= (_ bv8 8) (_ bv4 8))))
(assert (not (= (_ bv8 8) (_ bv9 8))))
(assert (not (= (_ bv8 8) x77)))
(assert (not (= (_ bv8 8) x87)))
(assert (not (= x27 x37)))
(assert (not (= x27 x47)))
(assert (not (= x27 (_ bv4 8))))
(assert (not (= x27 (_ bv9 8))))
(assert (not (= x27 x77)))
(assert (not (= x27 x87)))
(assert (not (= x37 x47)))
(assert (not (= x37 (_ bv4 8))))
(assert (not (= x37 (_ bv9 8))))
(assert (not (= x37 x77)))
(assert (not (= x37 x87)))
(assert (not (= x47 (_ bv4 8))))
(assert (not (= x47 (_ bv9 8))))
(assert (not (= x47 x77)))
(assert (not (= x47 x87)))
(assert (not (= (_ bv4 8) (_ bv9 8))))
(assert (not (= (_ bv4 8) x77)))
(assert (not (= (_ bv4 8) x87)))
(assert (not (= (_ bv9 8) x77)))
(assert (not (= (_ bv9 8) x87)))
(assert (not (= x77 x87)))
(assert (not (= (_ bv7 8) x18)))
(assert (not (= (_ bv7 8) (_ bv9 8))))
(assert (not (= (_ bv7 8) x38)))
(assert (not (= (_ bv7 8) x48)))
(assert (not (= (_ bv7 8) x58)))
(assert (not (= (_ bv7 8) (_ bv1 8))))
(assert (not (= (_ bv7 8) x78)))
(assert (not (= (_ bv7 8) x88)))
(assert (not (= x18 (_ bv9 8))))
(assert (not (= x18 x38)))
(assert (not (= x18 x48)))
(assert (not (= x18 x58)))
(assert (not (= x18 (_ bv1 8))))
(assert (not (= x18 x78)))
(assert (not (= x18 x88)))
(assert (not (= (_ bv9 8) x38)))
(assert (not (= (_ bv9 8) x48)))
(assert (not (= (_ bv9 8) x58)))
(assert (not (= (_ bv9 8) (_ bv1 8))))
(assert (not (= (_ bv9 8) x78)))
(assert (not (= (_ bv9 8) x88)))
(assert (not (= x38 x48)))
(assert (not (= x38 x58)))
(assert (not (= x38 (_ bv1 8))))
(assert (not (= x38 x78)))
(assert (not (= x38 x88)))
(assert (not (= x48 x58)))
(assert (not (= x48 (_ bv1 8))))
(assert (not (= x48 x78)))
(assert (not (= x48 x88)))
(assert (not (= x58 (_ bv1 8))))
(assert (not (= x58 x78)))
(assert (not (= x58 x88)))
(assert (not (= (_ bv1 8) x78)))
(assert (not (= (_ bv1 8) x88)))
(assert (not (= x78 x88)))
(assert (not (= x00 x01)))
(assert (not (= x00 x02)))
(assert (not (= x00 x10)))
(assert (not (= x00 x11)))
(assert (not (= x00 (_ bv1 8))))
(assert (not (= x00 x20)))
(assert (not (= x00 (_ bv3 8))))
(assert (not (= x00 x22)))
(assert (not (= x01 x02)))
(assert (not (= x01 x10)))
(assert (not (= x01 x11)))
(assert (not (= x01 (_ bv1 8))))
(assert (not (= x01 x20)))
(assert (not (= x01 (_ bv3 8))))
(assert (not (= x01 x22)))
(assert (not (= x02 x10)))
(assert (not (= x02 x11)))
(assert (not (= x02 (_ bv1 8))))
(assert (not (= x02 x20)))
(assert (not (= x02 (_ bv3 8))))
(assert (not (= x02 x22)))
(assert (not (= x10 x11)))
(assert (not (= x10 (_ bv1 8))))
(assert (not (= x10 x20)))
(assert (not (= x10 (_ bv3 8))))
(assert (not (= x10 x22)))
(assert (not (= x11 (_ bv1 8))))
(assert (not (= x11 x20)))
(assert (not (= x11 (_ bv3 8))))
(assert (not (= x11 x22)))
(assert (not (= (_ bv1 8) x20)))
(assert (not (= (_ bv1 8) (_ bv3 8))))
(assert (not (= (_ bv1 8) x22)))
(assert (not (= x20 (_ bv3 8))))
(assert (not (= x20 x22)))
(assert (not (= (_ bv3 8) x22)))
(assert (not (= x03 x04)))
(assert (not (= x03 x05)))
(assert (not (= x03 x13)))
(assert (not (= x03 x14)))
(assert (not (= x03 (_ bv9 8))))
(assert (not (= x03 (_ bv6 8))))
(assert (not (= x03 x24)))
(assert (not (= x03 x25)))
(assert (not (= x04 x05)))
(assert (not (= x04 x13)))
(assert (not (= x04 x14)))
(assert (not (= x04 (_ bv9 8))))
(assert (not (= x04 (_ bv6 8))))
(assert (not (= x04 x24)))
(assert (not (= x04 x25)))
(assert (not (= x05 x13)))
(assert (not (= x05 x14)))
(assert (not (= x05 (_ bv9 8))))
(assert (not (= x05 (_ bv6 8))))
(assert (not (= x05 x24)))
(assert (not (= x05 x25)))
(assert (not (= x13 x14)))
(assert (not (= x13 (_ bv9 8))))
(assert (not (= x13 (_ bv6 8))))
(assert (not (= x13 x24)))
(assert (not (= x13 x25)))
(assert (not (= x14 (_ bv9 8))))
(assert (not (= x14 (_ bv6 8))))
(assert (not (= x14 x24)))
(assert (not (= x14 x25)))
(assert (not (= (_ bv9 8) (_ bv6 8))))
(assert (not (= (_ bv9 8) x24)))
(assert (not (= (_ bv9 8) x25)))
(assert (not (= (_ bv6 8) x24)))
(assert (not (= (_ bv6 8) x25)))
(assert (not (= x24 x25)))
(assert (not (= x06 x07)))
(assert (not (= x06 (_ bv7 8))))
(assert (not (= x06 x16)))
(assert (not (= x06 (_ bv8 8))))
(assert (not (= x06 x18)))
(assert (not (= x06 (_ bv5 8))))
(assert (not (= x06 x27)))
(assert (not (= x06 (_ bv9 8))))
(assert (not (= x07 (_ bv7 8))))
(assert (not (= x07 x16)))
(assert (not (= x07 (_ bv8 8))))
(assert (not (= x07 x18)))
(assert (not (= x07 (_ bv5 8))))
(assert (not (= x07 x27)))
(assert (not (= x07 (_ bv9 8))))
(assert (not (= (_ bv7 8) x16)))
(assert (not (= (_ bv7 8) (_ bv8 8))))
(assert (not (= (_ bv7 8) x18)))
(assert (not (= (_ bv7 8) (_ bv5 8))))
(assert (not (= (_ bv7 8) x27)))
(assert (not (= (_ bv7 8) (_ bv9 8))))
(assert (not (= x16 (_ bv8 8))))
(assert (not (= x16 x18)))
(assert (not (= x16 (_ bv5 8))))
(assert (not (= x16 x27)))
(assert (not (= x16 (_ bv9 8))))
(assert (not (= (_ bv8 8) x18)))
(assert (not (= (_ bv8 8) (_ bv5 8))))
(assert (not (= (_ bv8 8) x27)))
(assert (not (= (_ bv8 8) (_ bv9 8))))
(assert (not (= x18 (_ bv5 8))))
(assert (not (= x18 x27)))
(assert (not (= x18 (_ bv9 8))))
(assert (not (= (_ bv5 8) x27)))
(assert (not (= (_ bv5 8) (_ bv9 8))))
(assert (not (= x27 (_ bv9 8))))
(assert (not (= x30 (_ bv9 8))))
(assert (not (= x30 x32)))
(assert (not (= x30 x40)))
(assert (not (= x30 x41)))
(assert (not (= x30 x42)))
(assert (not (= x30 (_ bv3 8))))
(assert (not (= x30 x51)))
(assert (not (= x30 x52)))
(assert (not (= (_ bv9 8) x32)))
(assert (not (= (_ bv9 8) x40)))
(assert (not (= (_ bv9 8) x41)))
(assert (not (= (_ bv9 8) x42)))
(assert (not (= (_ bv9 8) (_ bv3 8))))
(assert (not (= (_ bv9 8) x51)))
(assert (not (= (_ bv9 8) x52)))
(assert (not (= x32 x40)))
(assert (not (= x32 x41)))
(assert (not (= x32 x42)))
(assert (not (= x32 (_ bv3 8))))
(assert (not (= x32 x51)))
(assert (not (= x32 x52)))
(assert (not (= x40 x41)))
(assert (not (= x40 x42)))
(assert (not (= x40 (_ bv3 8))))
(assert (not (= x40 x51)))
(assert (not (= x40 x52)))
(assert (not (= x41 x42)))
(assert (not (= x41 (_ bv3 8))))
(assert (not (= x41 x51)))
(assert (not (= x41 x52)))
(assert (not (= x42 (_ bv3 8))))
(assert (not (= x42 x51)))
(assert (not (= x42 x52)))
(assert (not (= (_ bv3 8) x51)))
(assert (not (= (_ bv3 8) x52)))
(assert (not (= x51 x52)))
(assert (not (= x33 (_ bv2 8))))
(assert (not (= x33 (_ bv5 8))))
(assert (not (= x33 x43)))
(assert (not (= x33 (_ bv6 8))))
(assert (not (= x33 x45)))
(assert (not (= x33 (_ bv9 8))))
(assert (not (= x33 x54)))
(assert (not (= x33 x55)))
(assert (not (= (_ bv2 8) (_ bv5 8))))
(assert (not (= (_ bv2 8) x43)))
(assert (not (= (_ bv2 8) (_ bv6 8))))
(assert (not (= (_ bv2 8) x45)))
(assert (not (= (_ bv2 8) (_ bv9 8))))
(assert (not (= (_ bv2 8) x54)))
(assert (not (= (_ bv2 8) x55)))
(assert (not (= (_ bv5 8) x43)))
(assert (not (= (_ bv5 8) (_ bv6 8))))
(assert (not (= (_ bv5 8) x45)))
(assert (not (= (_ bv5 8) (_ bv9 8))))
(assert (not (= (_ bv5 8) x54)))
(assert (not (= (_ bv5 8) x55)))
(assert (not (= x43 (_ bv6 8))))
(assert (not (= x43 x45)))
(assert (not (= x43 (_ bv9 8))))
(assert (not (= x43 x54)))
(assert (not (= x43 x55)))
(assert (not (= (_ bv6 8) x45)))
(assert (not (= (_ bv6 8) (_ bv9 8))))
(assert (not (= (_ bv6 8) x54)))
(assert (not (= (_ bv6 8) x55)))
(assert (not (= x45 (_ bv9 8))))
(assert (not (= x45 x54)))
(assert (not (= x45 x55)))
(assert (not (= (_ bv9 8) x54)))
(assert (not (= (_ bv9 8) x55)))
(assert (not (= x54 x55)))
(assert (not (= x36 x37)))
(assert (not (= x36 x38)))
(assert (not (= x36 x46)))
(assert (not (= x36 x47)))
(assert (not (= x36 x48)))
(assert (not (= x36 x56)))
(assert (not (= x36 (_ bv4 8))))
(assert (not (= x36 x58)))
(assert (not (= x37 x38)))
(assert (not (= x37 x46)))
(assert (not (= x37 x47)))
(assert (not (= x37 x48)))
(assert (not (= x37 x56)))
(assert (not (= x37 (_ bv4 8))))
(assert (not (= x37 x58)))
(assert (not (= x38 x46)))
(assert (not (= x38 x47)))
(assert (not (= x38 x48)))
(assert (not (= x38 x56)))
(assert (not (= x38 (_ bv4 8))))
(assert (not (= x38 x58)))
(assert (not (= x46 x47)))
(assert (not (= x46 x48)))
(assert (not (= x46 x56)))
(assert (not (= x46 (_ bv4 8))))
(assert (not (= x46 x58)))
(assert (not (= x47 x48)))
(assert (not (= x47 x56)))
(assert (not (= x47 (_ bv4 8))))
(assert (not (= x47 x58)))
(assert (not (= x48 x56)))
(assert (not (= x48 (_ bv4 8))))
(assert (not (= x48 x58)))
(assert (not (= x56 (_ bv4 8))))
(assert (not (= x56 x58)))
(assert (not (= (_ bv4 8) x58)))
(assert (not (= x60 x61)))
(assert (not (= x60 (_ bv7 8))))
(assert (not (= x60 x70)))
(assert (not (= x60 (_ bv2 8))))
(assert (not (= x60 x72)))
(assert (not (= x60 (_ bv8 8))))
(assert (not (= x60 x81)))
(assert (not (= x60 x82)))
(assert (not (= x61 (_ bv7 8))))
(assert (not (= x61 x70)))
(assert (not (= x61 (_ bv2 8))))
(assert (not (= x61 x72)))
(assert (not (= x61 (_ bv8 8))))
(assert (not (= x61 x81)))
(assert (not (= x61 x82)))
(assert (not (= (_ bv7 8) x70)))
(assert (not (= (_ bv7 8) (_ bv2 8))))
(assert (not (= (_ bv7 8) x72)))
(assert (not (= (_ bv7 8) (_ bv8 8))))
(assert (not (= (_ bv7 8) x81)))
(assert (not (= (_ bv7 8) x82)))
(assert (not (= x70 (_ bv2 8))))
(assert (not (= x70 x72)))
(assert (not (= x70 (_ bv8 8))))
(assert (not (= x70 x81)))
(assert (not (= x70 x82)))
(assert (not (= (_ bv2 8) x72)))
(assert (not (= (_ bv2 8) (_ bv8 8))))
(assert (not (= (_ bv2 8) x81)))
(assert (not (= (_ bv2 8) x82)))
(assert (not (= x72 (_ bv8 8))))
(assert (not (= x72 x81)))
(assert (not (= x72 x82)))
(assert (not (= (_ bv8 8) x81)))
(assert (not (= (_ bv8 8) x82)))
(assert (not (= x81 x82)))
(assert (not (= x63 x64)))
(assert (not (= x63 x65)))
(assert (not (= x63 (_ bv5 8))))
(assert (not (= x63 x74)))
(assert (not (= x63 x75)))
(assert (not (= x63 x83)))
(assert (not (= x63 x84)))
(assert (not (= x63 x85)))
(assert (not (= x64 x65)))
(assert (not (= x64 (_ bv5 8))))
(assert (not (= x64 x74)))
(assert (not (= x64 x75)))
(assert (not (= x64 x83)))
(assert (not (= x64 x84)))
(assert (not (= x64 x85)))
(assert (not (= x65 (_ bv5 8))))
(assert (not (= x65 x74)))
(assert (not (= x65 x75)))
(assert (not (= x65 x83)))
(assert (not (= x65 x84)))
(assert (not (= x65 x85)))
(assert (not (= (_ bv5 8) x74)))
(assert (not (= (_ bv5 8) x75)))
(assert (not (= (_ bv5 8) x83)))
(assert (not (= (_ bv5 8) x84)))
(assert (not (= (_ bv5 8) x85)))
(assert (not (= x74 x75)))
(assert (not (= x74 x83)))
(assert (not (= x74 x84)))
(assert (not (= x74 x85)))
(assert (not (= x75 x83)))
(assert (not (= x75 x84)))
(assert (not (= x75 x85)))
(assert (not (= x83 x84)))
(assert (not (= x83 x85)))
(assert (not (= x84 x85)))
(assert (not (= x66 (_ bv9 8))))
(assert (not (= x66 (_ bv1 8))))
(assert (not (= x66 (_ bv3 8))))
(assert (not (= x66 x77)))
(assert (not (= x66 x78)))
(assert (not (= x66 x86)))
(assert (not (= x66 x87)))
(assert (not (= x66 x88)))
(assert (not (= (_ bv9 8) (_ bv1 8))))
(assert (not (= (_ bv9 8) (_ bv3 8))))
(assert (not (= (_ bv9 8) x77)))
(assert (not (= (_ bv9 8) x78)))
(assert (not (= (_ bv9 8) x86)))
(assert (not (= (_ bv9 8) x87)))
(assert (not (= (_ bv9 8) x88)))
(assert (not (= (_ bv1 8) (_ bv3 8))))
(assert (not (= (_ bv1 8) x77)))
(assert (not (= (_ bv1 8) x78)))
(assert (not (= (_ bv1 8) x86)))
(assert (not (= (_ bv1 8) x87)))
(assert (not (= (_ bv1 8) x88)))
(assert (not (= (_ bv3 8) x77)))
(assert (not (= (_ bv3 8) x78)))
(assert (not (= (_ bv3 8) x86)))
(assert (not (= (_ bv3 8) x87)))
(assert (not (= (_ bv3 8) x88)))
(assert (not (= x77 x78)))
(assert (not (= x77 x86)))
(assert (not (= x77 x87)))
(assert (not (= x77 x88)))
(assert (not (= x78 x86)))
(assert (not (= x78 x87)))
(assert (not (= x78 x88)))
(assert (not (= x86 x87)))
(assert (not (= x86 x88)))
(assert (not (= x87 x88)))
(check-sat)
(exit)
